n = 50;
C = 245;
w = [191,439,232,26,498,72,49,127,38,345,232,474,353,436,157,431,484,314,53,67,196,356,52,249,128,298,106,149,271,357,178,374,455,141,306,29,442,458,304,215,39,202,68,195,445,95,223,211,383,324];
p = [965,2205,1170,140,2500,370,255,645,200,1735,1170,2380,1775,2190,795,2165,2430,1580,275,345,990,1790,270,1255,650,1500,540,755,1365,1795,900,1880,2285,715,1540,155,2220,2300,1530,1085,205,1020,350,985,2235,485,1125,1065,1925,1630];
